GLPSOL--GLPK LP/MIP Solver 5.0
Parameter(s) specified in the command line:
 --lp ../modeles/20_19.lp --log 20_19.log
Reading problem data from '../modeles/20_19.lp'...
461 rows, 800 columns, 2760 non-zeros
380 integer variables, all of which are binary
1287 lines were read
GLPK Integer Optimizer 5.0
461 rows, 800 columns, 2760 non-zeros
380 integer variables, all of which are binary
Preprocessing...
360 constraint coefficient(s) were reduced
461 rows, 780 columns, 2740 non-zeros
380 integer variables, all of which are binary
Scaling...
 A: min|aij| =  1.108e-02  max|aij| =  4.000e+00  ratio =  3.610e+02
GM: min|aij| =  2.294e-01  max|aij| =  4.359e+00  ratio =  1.900e+01
EQ: min|aij| =  5.263e-02  max|aij| =  1.000e+00  ratio =  1.900e+01
2N: min|aij| =  4.432e-02  max|aij| =  1.604e+00  ratio =  3.620e+01
Constructing initial basis...
Size of triangular part is 461
Solving LP relaxation...
GLPK Simplex Optimizer 5.0
461 rows, 780 columns, 2740 non-zeros
      0: obj =   4.000000000e+01 inf =   9.950e+01 (41)
     99: obj =   3.902777778e-01 inf =   0.000e+00 (0)
*   295: obj =  -3.953947368e+00 inf =   4.672e-15 (0)
OPTIMAL LP SOLUTION FOUND
Integer optimization begins...
Long-step dual simplex will be used
+   295: mip =     not found yet >=              -inf        (1; 0)
+   301: >>>>>  -3.953947368e+00 >=  -3.953947368e+00 < 0.1% (5; 0)
+   301: mip =  -3.953947368e+00 >=     tree is empty   0.0% (0; 9)
INTEGER OPTIMAL SOLUTION FOUND
Time used:   0.0 secs
Memory used: 1.2 Mb (1263586 bytes)
